\ Generated by MPModelProtoExporter
\   Name             : SCIP
\   Format           : Free
\   Constraints      : 30
\   Variables        : 210
\     Binary         : 210
\     Integer        : 0
\     Continuous     : 0
Minimize
 Obj: +51 x[0,0] +39 x[1,0] +65 x[2,0] +93 x[3,0] +90 x[4,0] +42 x[5,0] +8 x[6,0] +30 x[7,0] +56 x[8,0] +74 x[9,0] +94 x[10,0] +42 x[11,0] +3 x[12,0] +86 x[13,0] +43 x[14,0] +85 x[15,0] +79 x[16,0] +52 x[17,0] +49 x[18,0] +11 x[19,0] +47 x[0,1] +5 x[1,1] +62 x[2,1] +9 x[3,1] +5 x[4,1] +46 x[5,1] +42 x[6,1] +68 x[7,1] +67 x[8,1] +93 x[9,1] +83 x[10,1] +14 x[11,1] +31 x[12,1] +64 x[13,1] +83 x[14,1] +95 x[15,1] +24 x[16,1] +20 x[17,1] +98 x[18,1] +53 x[19,1] +94 x[0,2] +1 x[1,2] +12 x[2,2] +82 x[3,2] +12 x[4,2] +36 x[5,2] +70 x[6,2] +45 x[7,2] +81 x[8,2] +80 x[10,2] +7 x[11,2] +92 x[12,2] +46 x[13,2] +29 x[14,2] +54 x[15,2] +22 x[16,2] +57 x[17,2] +55 x[18,2] +48 x[19,2] +76 x[0,3] +8 x[1,3] +10 x[2,3] +64 x[3,3] +72 x[4,3] +63 x[5,3] +83 x[6,3] +53 x[7,3] +4 x[8,3] +65 x[9,3] +60 x[10,3] +98 x[11,3] +7 x[12,3] +93 x[13,3] +94 x[14,3] +10 x[15,3] +3 x[16,3] +83 x[17,3] +47 x[18,3] +27 x[19,3] +60 x[0,4] +33 x[1,4] +16 x[2,4] +65 x[3,4] +65 x[4,4] +2 x[5,4] +25 x[6,4] +83 x[7,4] +17 x[8,4] +20 x[9,4] +26 x[10,4] +84 x[11,4] +47 x[12,4] +75 x[13,4] +85 x[14,4] +95 x[15,4] +17 x[16,4] +58 x[17,4] +56 x[18,4] +29 x[19,4] +24 x[0,5] +70 x[1,5] +50 x[2,5] +1 x[3,5] +48 x[4,5] +31 x[5,5] +59 x[6,5] +94 x[7,5] +58 x[8,5] +51 x[9,5] +90 x[10,5] +26 x[11,5] +28 x[12,5] +85 x[13,5] +19 x[14,5] +20 x[15,5] +64 x[16,5] +45 x[17,5] +21 x[18,5] +23 x[19,5] +18 x[0,6] +2 x[1,6] +27 x[2,6] +29 x[3,6] +25 x[4,6] +61 x[5,6] +67 x[6,6] +21 x[7,6] +69 x[8,6] +34 x[9,6] +53 x[10,6] +9 x[11,6] +99 x[12,6] +37 x[13,6] +87 x[14,6] +49 x[15,6] +3 x[16,6] +32 x[17,6] +41 x[18,6] +87 x[19,6] +6 x[0,7] +86 x[1,7] +38 x[2,7] +16 x[3,7] +65 x[4,7] +69 x[5,7] +12 x[6,7] +42 x[7,7] +56 x[8,7] +35 x[9,7] +55 x[10,7] +90 x[11,7] +2 x[12,7] +8 x[13,7] +84 x[14,7] +31 x[15,7] +37 x[16,7] +52 x[17,7] +29 x[18,7] +94 x[19,7] +96 x[0,8] +55 x[1,8] +84 x[2,8] +39 x[3,8] +77 x[4,8] +56 x[5,8] +41 x[6,8] +42 x[7,8] +70 x[8,8] +75 x[9,8] +74 x[10,8] +27 x[11,8] +44 x[12,8] +94 x[13,8] +78 x[14,8] +12 x[15,8] +15 x[16,8] +47 x[17,8] +13 x[18,8] +45 x[19,8] +20 x[0,9] +81 x[1,9] +97 x[2,9] +95 x[3,9] +25 x[4,9] +33 x[5,9] +28 x[6,9] +97 x[7,9] +68 x[8,9] +51 x[9,9] +51 x[10,9] +84 x[11,9] +11 x[12,9] +99 x[13,9] +95 x[14,9] +53 x[15,9] +67 x[16,9] +58 x[17,9] +17 x[18,9] +90 x[19,9] +206 y[0] +132 y[1] +335 y[2] +219 y[3] +340 y[4] +206 y[5] +340 y[6] +298 y[7] +233 y[8] +322 y[9] 
Subject to
 auto_c_000000000: +1 x[0,0] +1 x[0,1] +1 x[0,2] +1 x[0,3] +1 x[0,4] +1 x[0,5] +1 x[0,6] +1 x[0,7] +1 x[0,8] +1 x[0,9]  = 1
 auto_c_000000001: +1 x[1,0] +1 x[1,1] +1 x[1,2] +1 x[1,3] +1 x[1,4] +1 x[1,5] +1 x[1,6] +1 x[1,7] +1 x[1,8] +1 x[1,9]  = 1
 auto_c_000000002: +1 x[2,0] +1 x[2,1] +1 x[2,2] +1 x[2,3] +1 x[2,4] +1 x[2,5] +1 x[2,6] +1 x[2,7] +1 x[2,8] +1 x[2,9]  = 1
 auto_c_000000003: +1 x[3,0] +1 x[3,1] +1 x[3,2] +1 x[3,3] +1 x[3,4] +1 x[3,5] +1 x[3,6] +1 x[3,7] +1 x[3,8] +1 x[3,9]  = 1
 auto_c_000000004: +1 x[4,0] +1 x[4,1] +1 x[4,2] +1 x[4,3] +1 x[4,4] +1 x[4,5] +1 x[4,6] +1 x[4,7] +1 x[4,8] +1 x[4,9]  = 1
 auto_c_000000005: +1 x[5,0] +1 x[5,1] +1 x[5,2] +1 x[5,3] +1 x[5,4] +1 x[5,5] +1 x[5,6] +1 x[5,7] +1 x[5,8] +1 x[5,9]  = 1
 auto_c_000000006: +1 x[6,0] +1 x[6,1] +1 x[6,2] +1 x[6,3] +1 x[6,4] +1 x[6,5] +1 x[6,6] +1 x[6,7] +1 x[6,8] +1 x[6,9]  = 1
 auto_c_000000007: +1 x[7,0] +1 x[7,1] +1 x[7,2] +1 x[7,3] +1 x[7,4] +1 x[7,5] +1 x[7,6] +1 x[7,7] +1 x[7,8] +1 x[7,9]  = 1
 auto_c_000000008: +1 x[8,0] +1 x[8,1] +1 x[8,2] +1 x[8,3] +1 x[8,4] +1 x[8,5] +1 x[8,6] +1 x[8,7] +1 x[8,8] +1 x[8,9]  = 1
 auto_c_000000009: +1 x[9,0] +1 x[9,1] +1 x[9,2] +1 x[9,3] +1 x[9,4] +1 x[9,5] +1 x[9,6] +1 x[9,7] +1 x[9,8] +1 x[9,9]  = 1
 auto_c_000000010: +1 x[10,0] +1 x[10,1] +1 x[10,2] +1 x[10,3] +1 x[10,4] +1 x[10,5] +1 x[10,6] +1 x[10,7] +1 x[10,8] +1 x[10,9]  = 1
 auto_c_000000011: +1 x[11,0] +1 x[11,1] +1 x[11,2] +1 x[11,3] +1 x[11,4] +1 x[11,5] +1 x[11,6] +1 x[11,7] +1 x[11,8] +1 x[11,9]  = 1
 auto_c_000000012: +1 x[12,0] +1 x[12,1] +1 x[12,2] +1 x[12,3] +1 x[12,4] +1 x[12,5] +1 x[12,6] +1 x[12,7] +1 x[12,8] +1 x[12,9]  = 1
 auto_c_000000013: +1 x[13,0] +1 x[13,1] +1 x[13,2] +1 x[13,3] +1 x[13,4] +1 x[13,5] +1 x[13,6] +1 x[13,7] +1 x[13,8] +1 x[13,9]  = 1
 auto_c_000000014: +1 x[14,0] +1 x[14,1] +1 x[14,2] +1 x[14,3] +1 x[14,4] +1 x[14,5] +1 x[14,6] +1 x[14,7] +1 x[14,8] +1 x[14,9]  = 1
 auto_c_000000015: +1 x[15,0] +1 x[15,1] +1 x[15,2] +1 x[15,3] +1 x[15,4] +1 x[15,5] +1 x[15,6] +1 x[15,7] +1 x[15,8] +1 x[15,9]  = 1
 auto_c_000000016: +1 x[16,0] +1 x[16,1] +1 x[16,2] +1 x[16,3] +1 x[16,4] +1 x[16,5] +1 x[16,6] +1 x[16,7] +1 x[16,8] +1 x[16,9]  = 1
 auto_c_000000017: +1 x[17,0] +1 x[17,1] +1 x[17,2] +1 x[17,3] +1 x[17,4] +1 x[17,5] +1 x[17,6] +1 x[17,7] +1 x[17,8] +1 x[17,9]  = 1
 auto_c_000000018: +1 x[18,0] +1 x[18,1] +1 x[18,2] +1 x[18,3] +1 x[18,4] +1 x[18,5] +1 x[18,6] +1 x[18,7] +1 x[18,8] +1 x[18,9]  = 1
 auto_c_000000019: +1 x[19,0] +1 x[19,1] +1 x[19,2] +1 x[19,3] +1 x[19,4] +1 x[19,5] +1 x[19,6] +1 x[19,7] +1 x[19,8] +1 x[19,9]  = 1
 auto_c_000000020: +17 x[0,0] +24 x[1,0] +23 x[2,0] +37 x[3,0] +12 x[4,0] +29 x[5,0] +21 x[6,0] +2 x[7,0] +18 x[8,0] +9 x[9,0] +22 x[10,0] +21 x[11,0] +12 x[12,0] +16 x[13,0] +24 x[14,0] +35 x[15,0] +23 x[16,0] +5 x[17,0] +33 x[18,0] +22 x[19,0] -36 y[0]  <= 0
 auto_c_000000021: +17 x[0,1] +24 x[1,1] +23 x[2,1] +37 x[3,1] +12 x[4,1] +29 x[5,1] +21 x[6,1] +2 x[7,1] +18 x[8,1] +9 x[9,1] +22 x[10,1] +21 x[11,1] +12 x[12,1] +16 x[13,1] +24 x[14,1] +35 x[15,1] +23 x[16,1] +5 x[17,1] +33 x[18,1] +22 x[19,1] -47 y[1]  <= 0
 auto_c_000000022: +17 x[0,2] +24 x[1,2] +23 x[2,2] +37 x[3,2] +12 x[4,2] +29 x[5,2] +21 x[6,2] +2 x[7,2] +18 x[8,2] +9 x[9,2] +22 x[10,2] +21 x[11,2] +12 x[12,2] +16 x[13,2] +24 x[14,2] +35 x[15,2] +23 x[16,2] +5 x[17,2] +33 x[18,2] +22 x[19,2] -66 y[2]  <= 0
 auto_c_000000023: +17 x[0,3] +24 x[1,3] +23 x[2,3] +37 x[3,3] +12 x[4,3] +29 x[5,3] +21 x[6,3] +2 x[7,3] +18 x[8,3] +9 x[9,3] +22 x[10,3] +21 x[11,3] +12 x[12,3] +16 x[13,3] +24 x[14,3] +35 x[15,3] +23 x[16,3] +5 x[17,3] +33 x[18,3] +22 x[19,3] -56 y[3]  <= 0
 auto_c_000000024: +17 x[0,4] +24 x[1,4] +23 x[2,4] +37 x[3,4] +12 x[4,4] +29 x[5,4] +21 x[6,4] +2 x[7,4] +18 x[8,4] +9 x[9,4] +22 x[10,4] +21 x[11,4] +12 x[12,4] +16 x[13,4] +24 x[14,4] +35 x[15,4] +23 x[16,4] +5 x[17,4] +33 x[18,4] +22 x[19,4] -72 y[4]  <= 0
 auto_c_000000025: +17 x[0,5] +24 x[1,5] +23 x[2,5] +37 x[3,5] +12 x[4,5] +29 x[5,5] +21 x[6,5] +2 x[7,5] +18 x[8,5] +9 x[9,5] +22 x[10,5] +21 x[11,5] +12 x[12,5] +16 x[13,5] +24 x[14,5] +35 x[15,5] +23 x[16,5] +5 x[17,5] +33 x[18,5] +22 x[19,5] -39 y[5]  <= 0
 auto_c_000000026: +17 x[0,6] +24 x[1,6] +23 x[2,6] +37 x[3,6] +12 x[4,6] +29 x[5,6] +21 x[6,6] +2 x[7,6] +18 x[8,6] +9 x[9,6] +22 x[10,6] +21 x[11,6] +12 x[12,6] +16 x[13,6] +24 x[14,6] +35 x[15,6] +23 x[16,6] +5 x[17,6] +33 x[18,6] +22 x[19,6] -58 y[6]  <= 0
 auto_c_000000027: +17 x[0,7] +24 x[1,7] +23 x[2,7] +37 x[3,7] +12 x[4,7] +29 x[5,7] +21 x[6,7] +2 x[7,7] +18 x[8,7] +9 x[9,7] +22 x[10,7] +21 x[11,7] +12 x[12,7] +16 x[13,7] +24 x[14,7] +35 x[15,7] +23 x[16,7] +5 x[17,7] +33 x[18,7] +22 x[19,7] -41 y[7]  <= 0
 auto_c_000000028: +17 x[0,8] +24 x[1,8] +23 x[2,8] +37 x[3,8] +12 x[4,8] +29 x[5,8] +21 x[6,8] +2 x[7,8] +18 x[8,8] +9 x[9,8] +22 x[10,8] +21 x[11,8] +12 x[12,8] +16 x[13,8] +24 x[14,8] +35 x[15,8] +23 x[16,8] +5 x[17,8] +33 x[18,8] +22 x[19,8] -62 y[8]  <= 0
 auto_c_000000029: +17 x[0,9] +24 x[1,9] +23 x[2,9] +37 x[3,9] +12 x[4,9] +29 x[5,9] +21 x[6,9] +2 x[7,9] +18 x[8,9] +9 x[9,9] +22 x[10,9] +21 x[11,9] +12 x[12,9] +16 x[13,9] +24 x[14,9] +35 x[15,9] +23 x[16,9] +5 x[17,9] +33 x[18,9] +22 x[19,9] -56 y[9]  <= 0
Bounds
 0 <= x[0,0] <= 1
 0 <= x[1,0] <= 1
 0 <= x[2,0] <= 1
 0 <= x[3,0] <= 1
 0 <= x[4,0] <= 1
 0 <= x[5,0] <= 1
 0 <= x[6,0] <= 1
 0 <= x[7,0] <= 1
 0 <= x[8,0] <= 1
 0 <= x[9,0] <= 1
 0 <= x[10,0] <= 1
 0 <= x[11,0] <= 1
 0 <= x[12,0] <= 1
 0 <= x[13,0] <= 1
 0 <= x[14,0] <= 1
 0 <= x[15,0] <= 1
 0 <= x[16,0] <= 1
 0 <= x[17,0] <= 1
 0 <= x[18,0] <= 1
 0 <= x[19,0] <= 1
 0 <= x[0,1] <= 1
 0 <= x[1,1] <= 1
 0 <= x[2,1] <= 1
 0 <= x[3,1] <= 1
 0 <= x[4,1] <= 1
 0 <= x[5,1] <= 1
 0 <= x[6,1] <= 1
 0 <= x[7,1] <= 1
 0 <= x[8,1] <= 1
 0 <= x[9,1] <= 1
 0 <= x[10,1] <= 1
 0 <= x[11,1] <= 1
 0 <= x[12,1] <= 1
 0 <= x[13,1] <= 1
 0 <= x[14,1] <= 1
 0 <= x[15,1] <= 1
 0 <= x[16,1] <= 1
 0 <= x[17,1] <= 1
 0 <= x[18,1] <= 1
 0 <= x[19,1] <= 1
 0 <= x[0,2] <= 1
 0 <= x[1,2] <= 1
 0 <= x[2,2] <= 1
 0 <= x[3,2] <= 1
 0 <= x[4,2] <= 1
 0 <= x[5,2] <= 1
 0 <= x[6,2] <= 1
 0 <= x[7,2] <= 1
 0 <= x[8,2] <= 1
 0 <= x[9,2] <= 1
 0 <= x[10,2] <= 1
 0 <= x[11,2] <= 1
 0 <= x[12,2] <= 1
 0 <= x[13,2] <= 1
 0 <= x[14,2] <= 1
 0 <= x[15,2] <= 1
 0 <= x[16,2] <= 1
 0 <= x[17,2] <= 1
 0 <= x[18,2] <= 1
 0 <= x[19,2] <= 1
 0 <= x[0,3] <= 1
 0 <= x[1,3] <= 1
 0 <= x[2,3] <= 1
 0 <= x[3,3] <= 1
 0 <= x[4,3] <= 1
 0 <= x[5,3] <= 1
 0 <= x[6,3] <= 1
 0 <= x[7,3] <= 1
 0 <= x[8,3] <= 1
 0 <= x[9,3] <= 1
 0 <= x[10,3] <= 1
 0 <= x[11,3] <= 1
 0 <= x[12,3] <= 1
 0 <= x[13,3] <= 1
 0 <= x[14,3] <= 1
 0 <= x[15,3] <= 1
 0 <= x[16,3] <= 1
 0 <= x[17,3] <= 1
 0 <= x[18,3] <= 1
 0 <= x[19,3] <= 1
 0 <= x[0,4] <= 1
 0 <= x[1,4] <= 1
 0 <= x[2,4] <= 1
 0 <= x[3,4] <= 1
 0 <= x[4,4] <= 1
 0 <= x[5,4] <= 1
 0 <= x[6,4] <= 1
 0 <= x[7,4] <= 1
 0 <= x[8,4] <= 1
 0 <= x[9,4] <= 1
 0 <= x[10,4] <= 1
 0 <= x[11,4] <= 1
 0 <= x[12,4] <= 1
 0 <= x[13,4] <= 1
 0 <= x[14,4] <= 1
 0 <= x[15,4] <= 1
 0 <= x[16,4] <= 1
 0 <= x[17,4] <= 1
 0 <= x[18,4] <= 1
 0 <= x[19,4] <= 1
 0 <= x[0,5] <= 1
 0 <= x[1,5] <= 1
 0 <= x[2,5] <= 1
 0 <= x[3,5] <= 1
 0 <= x[4,5] <= 1
 0 <= x[5,5] <= 1
 0 <= x[6,5] <= 1
 0 <= x[7,5] <= 1
 0 <= x[8,5] <= 1
 0 <= x[9,5] <= 1
 0 <= x[10,5] <= 1
 0 <= x[11,5] <= 1
 0 <= x[12,5] <= 1
 0 <= x[13,5] <= 1
 0 <= x[14,5] <= 1
 0 <= x[15,5] <= 1
 0 <= x[16,5] <= 1
 0 <= x[17,5] <= 1
 0 <= x[18,5] <= 1
 0 <= x[19,5] <= 1
 0 <= x[0,6] <= 1
 0 <= x[1,6] <= 1
 0 <= x[2,6] <= 1
 0 <= x[3,6] <= 1
 0 <= x[4,6] <= 1
 0 <= x[5,6] <= 1
 0 <= x[6,6] <= 1
 0 <= x[7,6] <= 1
 0 <= x[8,6] <= 1
 0 <= x[9,6] <= 1
 0 <= x[10,6] <= 1
 0 <= x[11,6] <= 1
 0 <= x[12,6] <= 1
 0 <= x[13,6] <= 1
 0 <= x[14,6] <= 1
 0 <= x[15,6] <= 1
 0 <= x[16,6] <= 1
 0 <= x[17,6] <= 1
 0 <= x[18,6] <= 1
 0 <= x[19,6] <= 1
 0 <= x[0,7] <= 1
 0 <= x[1,7] <= 1
 0 <= x[2,7] <= 1
 0 <= x[3,7] <= 1
 0 <= x[4,7] <= 1
 0 <= x[5,7] <= 1
 0 <= x[6,7] <= 1
 0 <= x[7,7] <= 1
 0 <= x[8,7] <= 1
 0 <= x[9,7] <= 1
 0 <= x[10,7] <= 1
 0 <= x[11,7] <= 1
 0 <= x[12,7] <= 1
 0 <= x[13,7] <= 1
 0 <= x[14,7] <= 1
 0 <= x[15,7] <= 1
 0 <= x[16,7] <= 1
 0 <= x[17,7] <= 1
 0 <= x[18,7] <= 1
 0 <= x[19,7] <= 1
 0 <= x[0,8] <= 1
 0 <= x[1,8] <= 1
 0 <= x[2,8] <= 1
 0 <= x[3,8] <= 1
 0 <= x[4,8] <= 1
 0 <= x[5,8] <= 1
 0 <= x[6,8] <= 1
 0 <= x[7,8] <= 1
 0 <= x[8,8] <= 1
 0 <= x[9,8] <= 1
 0 <= x[10,8] <= 1
 0 <= x[11,8] <= 1
 0 <= x[12,8] <= 1
 0 <= x[13,8] <= 1
 0 <= x[14,8] <= 1
 0 <= x[15,8] <= 1
 0 <= x[16,8] <= 1
 0 <= x[17,8] <= 1
 0 <= x[18,8] <= 1
 0 <= x[19,8] <= 1
 0 <= x[0,9] <= 1
 0 <= x[1,9] <= 1
 0 <= x[2,9] <= 1
 0 <= x[3,9] <= 1
 0 <= x[4,9] <= 1
 0 <= x[5,9] <= 1
 0 <= x[6,9] <= 1
 0 <= x[7,9] <= 1
 0 <= x[8,9] <= 1
 0 <= x[9,9] <= 1
 0 <= x[10,9] <= 1
 0 <= x[11,9] <= 1
 0 <= x[12,9] <= 1
 0 <= x[13,9] <= 1
 0 <= x[14,9] <= 1
 0 <= x[15,9] <= 1
 0 <= x[16,9] <= 1
 0 <= x[17,9] <= 1
 0 <= x[18,9] <= 1
 0 <= x[19,9] <= 1
 0 <= y[0] <= 1
 0 <= y[1] <= 1
 0 <= y[2] <= 1
 0 <= y[3] <= 1
 0 <= y[4] <= 1
 0 <= y[5] <= 1
 0 <= y[6] <= 1
 0 <= y[7] <= 1
 0 <= y[8] <= 1
 0 <= y[9] <= 1
Binaries
 x[0,0]
 x[1,0]
 x[2,0]
 x[3,0]
 x[4,0]
 x[5,0]
 x[6,0]
 x[7,0]
 x[8,0]
 x[9,0]
 x[10,0]
 x[11,0]
 x[12,0]
 x[13,0]
 x[14,0]
 x[15,0]
 x[16,0]
 x[17,0]
 x[18,0]
 x[19,0]
 x[0,1]
 x[1,1]
 x[2,1]
 x[3,1]
 x[4,1]
 x[5,1]
 x[6,1]
 x[7,1]
 x[8,1]
 x[9,1]
 x[10,1]
 x[11,1]
 x[12,1]
 x[13,1]
 x[14,1]
 x[15,1]
 x[16,1]
 x[17,1]
 x[18,1]
 x[19,1]
 x[0,2]
 x[1,2]
 x[2,2]
 x[3,2]
 x[4,2]
 x[5,2]
 x[6,2]
 x[7,2]
 x[8,2]
 x[9,2]
 x[10,2]
 x[11,2]
 x[12,2]
 x[13,2]
 x[14,2]
 x[15,2]
 x[16,2]
 x[17,2]
 x[18,2]
 x[19,2]
 x[0,3]
 x[1,3]
 x[2,3]
 x[3,3]
 x[4,3]
 x[5,3]
 x[6,3]
 x[7,3]
 x[8,3]
 x[9,3]
 x[10,3]
 x[11,3]
 x[12,3]
 x[13,3]
 x[14,3]
 x[15,3]
 x[16,3]
 x[17,3]
 x[18,3]
 x[19,3]
 x[0,4]
 x[1,4]
 x[2,4]
 x[3,4]
 x[4,4]
 x[5,4]
 x[6,4]
 x[7,4]
 x[8,4]
 x[9,4]
 x[10,4]
 x[11,4]
 x[12,4]
 x[13,4]
 x[14,4]
 x[15,4]
 x[16,4]
 x[17,4]
 x[18,4]
 x[19,4]
 x[0,5]
 x[1,5]
 x[2,5]
 x[3,5]
 x[4,5]
 x[5,5]
 x[6,5]
 x[7,5]
 x[8,5]
 x[9,5]
 x[10,5]
 x[11,5]
 x[12,5]
 x[13,5]
 x[14,5]
 x[15,5]
 x[16,5]
 x[17,5]
 x[18,5]
 x[19,5]
 x[0,6]
 x[1,6]
 x[2,6]
 x[3,6]
 x[4,6]
 x[5,6]
 x[6,6]
 x[7,6]
 x[8,6]
 x[9,6]
 x[10,6]
 x[11,6]
 x[12,6]
 x[13,6]
 x[14,6]
 x[15,6]
 x[16,6]
 x[17,6]
 x[18,6]
 x[19,6]
 x[0,7]
 x[1,7]
 x[2,7]
 x[3,7]
 x[4,7]
 x[5,7]
 x[6,7]
 x[7,7]
 x[8,7]
 x[9,7]
 x[10,7]
 x[11,7]
 x[12,7]
 x[13,7]
 x[14,7]
 x[15,7]
 x[16,7]
 x[17,7]
 x[18,7]
 x[19,7]
 x[0,8]
 x[1,8]
 x[2,8]
 x[3,8]
 x[4,8]
 x[5,8]
 x[6,8]
 x[7,8]
 x[8,8]
 x[9,8]
 x[10,8]
 x[11,8]
 x[12,8]
 x[13,8]
 x[14,8]
 x[15,8]
 x[16,8]
 x[17,8]
 x[18,8]
 x[19,8]
 x[0,9]
 x[1,9]
 x[2,9]
 x[3,9]
 x[4,9]
 x[5,9]
 x[6,9]
 x[7,9]
 x[8,9]
 x[9,9]
 x[10,9]
 x[11,9]
 x[12,9]
 x[13,9]
 x[14,9]
 x[15,9]
 x[16,9]
 x[17,9]
 x[18,9]
 x[19,9]
 y[0]
 y[1]
 y[2]
 y[3]
 y[4]
 y[5]
 y[6]
 y[7]
 y[8]
 y[9]
End
